15 34 70 69 64 57 58 76 37 10 54 25 51 47 26 28 0 38 49 71 53 7 1 6 24 61 43 17 30 63 67 33 60 32 23 22 31 4 78 44 27 3 11 8 74 20 35 75 55 16 66 59 21 48 52 68 50 14 73 18 72 56 41 5 13 36 39 77 46 45 2 65 40 29 79 9 42 62 12 19